20 50
1000
906 372
65 35
844 262
814 718
538 617
843 324
439 797
929 624
598 386
4 30
614 185
342 823
828 250
592 423
21 11
676 361
989 687
249 156
653 107
295 70
224 250
523 406
262 995
299 482
328 242
628 288
234 858
485 781
434 124
447 688
266 431
621 366
517 343
298 577
958 946
917 929
5 444
51 297
220 552
723 834
922 544
620 432
412 365
242 594
953 222
863 623
455 156
873 251
274 690
239 245
70 780
328 836
423 723
670 685
294 399
858 444
43 909
473 182
531 487
588 771
88 267
323 482
639 938
530 884
128 776
897 732
425 401
677 414
439 475
238 54
